Problem:    cifre
Rows:       24
Columns:    74 (72 integer, 72 binary)
Non-zeros:  256
Status:     INTEGER OPTIMAL
Objective:  0 (MINimum)

   No.   Row name        Activity     Lower bound   Upper bound
------ ------------    ------------- ------------- -------------
     1 vincoloCifre1[1]
                                   1             1             = 
     2 vincoloCifre1[2]
                                   1             1             = 
     3 vincoloCifre1[3]
                                   1             1             = 
     4 vincoloCifre1[4]
                                   1             1             = 
     5 vincoloCifre2[1]
                                   1             1             = 
     6 vincoloCifre2[2]
                                   1             1             = 
     7 vincoloCifre2[3]
                                   1             1             = 
     8 vincoloCifre2[4]
                                   1             1             = 
     9 numeriDiversi[1]
                                   0                           1 
    10 numeriDiversi[2]
                                   0                           1 
    11 numeriDiversi[3]
                                   1                           1 
    12 numeriDiversi[4]
                                   1                           1 
    13 numeriDiversi[5]
                                   0                           1 
    14 numeriDiversi[6]
                                   0                           1 
    15 numeriDiversi[7]
                                   1                           1 
    16 numeriDiversi[8]
                                   1                           1 
    17 numeriDiversi[9]
                                   0                           1 
    18 vincoloSomma             8612          8612             = 
    19 cifra1                      0            -0             = 
    20 cifra2                      0            -0             = 
    21 cifra3                      0            -0             = 
    22 cifra4                      0            -0             = 
    23 numeroIniziale
                                   0            -0             = 
    24 numeroModificato
                                   0            -0             = 

   No. Column name       Activity     Lower bound   Upper bound
------ ------------    ------------- ------------- -------------
     1 x[1,1]       *              0             0             1 
     2 x[2,1]       *              0             0             1 
     3 x[3,1]       *              0             0             1 
     4 x[4,1]       *              1             0             1 
     5 x[5,1]       *              0             0             1 
     6 x[6,1]       *              0             0             1 
     7 x[7,1]       *              0             0             1 
     8 x[8,1]       *              0             0             1 
     9 x[9,1]       *              0             0             1 
    10 x[1,2]       *              0             0             1 
    11 x[2,2]       *              0             0             1 
    12 x[3,2]       *              0             0             1 
    13 x[4,2]       *              0             0             1 
    14 x[5,2]       *              0             0             1 
    15 x[6,2]       *              0             0             1 
    16 x[7,2]       *              1             0             1 
    17 x[8,2]       *              0             0             1 
    18 x[9,2]       *              0             0             1 
    19 x[1,3]       *              0             0             1 
    20 x[2,3]       *              0             0             1 
    21 x[3,3]       *              0             0             1 
    22 x[4,3]       *              0             0             1 
    23 x[5,3]       *              0             0             1 
    24 x[6,3]       *              0             0             1 
    25 x[7,3]       *              0             0             1 
    26 x[8,3]       *              1             0             1 
    27 x[9,3]       *              0             0             1 
    28 x[1,4]       *              0             0             1 
    29 x[2,4]       *              0             0             1 
    30 x[3,4]       *              1             0             1 
    31 x[4,4]       *              0             0             1 
    32 x[5,4]       *              0             0             1 
    33 x[6,4]       *              0             0             1 
    34 x[7,4]       *              0             0             1 
    35 x[8,4]       *              0             0             1 
    36 x[9,4]       *              0             0             1 
    37 y[1,1]       *              0             0             1 
    38 y[2,1]       *              0             0             1 
    39 y[3,1]       *              0             0             1 
    40 y[4,1]       *              0             0             1 
    41 y[5,1]       *              0             0             1 
    42 y[6,1]       *              0             0             1 
    43 y[7,1]       *              0             0             1 
    44 y[8,1]       *              1             0             1 
    45 y[9,1]       *              0             0             1 
    46 y[1,2]       *              0             0             1 
    47 y[2,2]       *              0             0             1 
    48 y[3,2]       *              1             0             1 
    49 y[4,2]       *              0             0             1 
    50 y[5,2]       *              0             0             1 
    51 y[6,2]       *              0             0             1 
    52 y[7,2]       *              0             0             1 
    53 y[8,2]       *              0             0             1 
    54 y[9,2]       *              0             0             1 
    55 y[1,3]       *              0             0             1 
    56 y[2,3]       *              0             0             1 
    57 y[3,3]       *              0             0             1 
    58 y[4,3]       *              0             0             1 
    59 y[5,3]       *              0             0             1 
    60 y[6,3]       *              0             0             1 
    61 y[7,3]       *              1             0             1 
    62 y[8,3]       *              0             0             1 
    63 y[9,3]       *              0             0             1 
    64 y[1,4]       *              0             0             1 
    65 y[2,4]       *              0             0             1 
    66 y[3,4]       *              0             0             1 
    67 y[4,4]       *              1             0             1 
    68 y[5,4]       *              0             0             1 
    69 y[6,4]       *              0             0             1 
    70 y[7,4]       *              0             0             1 
    71 y[8,4]       *              0             0             1 
    72 y[9,4]       *              0             0             1 
    73 X                        3874             0               
    74 Y                        4738             0               

Integer feasibility conditions:

KKT.PE: max.abs.err = 0.00e+00 on row 0
        max.rel.err = 0.00e+00 on row 0
        High quality

KKT.PB: max.abs.err = 0.00e+00 on row 0
        max.rel.err = 0.00e+00 on row 0
        High quality

End of output
